data;

param n := 16;

param p := 8;

param AG :
	1	2	3	4	5	6	7	8	9	10	11	12	13	14	15	16	:=
 1	0	1	0	0	0	0	0	0	0	0	0	0	0	0	0	0	
 2	1	0	0	0	0	0	0	0	0	0	0	0	0	0	0	0	
 3	0	0	0	1	0	0	0	0	0	0	0	0	0	0	0	0	
 4	0	0	1	0	0	0	0	0	0	0	0	0	0	0	0	0	
 5	0	0	0	0	0	1	0	0	0	0	0	0	0	0	0	0	
 6	0	0	0	0	1	0	0	0	0	0	0	0	0	0	0	0	
 7	0	0	0	0	0	0	0	1	0	0	0	0	0	0	0	0	
 8	0	0	0	0	0	0	1	0	0	0	0	0	0	0	0	0	
 9	0	0	0	0	0	0	0	0	0	1	0	0	0	0	0	0	
 10	0	0	0	0	0	0	0	0	1	0	0	0	0	0	0	0	
 11	0	0	0	0	0	0	0	0	0	0	0	1	0	0	0	0	
 12	0	0	0	0	0	0	0	0	0	0	1	0	0	0	0	0	
 13	0	0	0	0	0	0	0	0	0	0	0	0	0	1	0	0	
 14	0	0	0	0	0	0	0	0	0	0	0	0	1	0	0	0	
 15	0	0	0	0	0	0	0	0	0	0	0	0	0	0	0	1	
 16	0	0	0	0	0	0	0	0	0	0	0	0	0	0	1	0	
;

param PI :
	1	2	3	4	5	6	7	8	:=
 1	0.5	0.5	0.5	0.5	0.5	0.5	0.5	0.5	
 2	0.5	0.5	0.5	0.5	0.5	0.5	0.5	0.5	
 3	0.5	0.5	0.5	0.5	0.5	0.5	0.5	0.5	
 4	0.5	0.5	0.5	0.5	0.5	0.5	0.5	0.5	
 5	0.5	0.5	0.5	0.5	0.5	0.5	0.5	0.5	
 6	0.5	0.5	0.5	0.5	0.5	0.5	0.5	0.5	
 7	0.5	0.5	0.5	0.5	0.5	0.5	0.5	0.5	
 8	0.5	0.5	0.5	0.5	0.5	0.5	0.5	0.5	
 9	0.5	0.5	0.5	0.5	0.5	0.5	0.5	0.5	
 10	0.5	0.5	0.5	0.5	0.5	0.5	0.5	0.5	
 11	0.5	0.5	0.5	0.5	0.5	0.5	0.5	0.5	
 12	0.5	0.5	0.5	0.5	0.5	0.5	0.5	0.5	
 13	0.5	0.5	0.5	0.5	0.5	0.5	0.5	0.5	
 14	0.5	0.5	0.5	0.5	0.5	0.5	0.5	0.5	
 15	0.5	0.5	0.5	0.5	0.5	0.5	0.5	0.5	
 16	0.5	0.5	0.5	0.5	0.5	0.5	0.5	0.5	
;

param CP :
	1	2	3	4	5	6	7	8	:=
 1	0.7	0.7	0.7	0.7	0.7	0.7	0.7	0.7	
 2	0.7	0.7	0.7	0.7	0.7	0.7	0.7	0.7	
 3	0.7	0.7	0.7	0.7	0.7	0.7	0.7	0.7	
 4	0.7	0.7	0.7	0.7	0.7	0.7	0.7	0.7	
 5	0.7	0.7	0.7	0.7	0.7	0.7	0.7	0.7	
 6	0.7	0.7	0.7	0.7	0.7	0.7	0.7	0.7	
 7	0.7	0.7	0.7	0.7	0.7	0.7	0.7	0.7	
 8	0.7	0.7	0.7	0.7	0.7	0.7	0.7	0.7	
;

param CA :
	1	2	3	4	5	6	7	8	9	10	11	12	13	14	15	16	:=
 1	1.0	1.0	1.0	1.0	1.0	1.0	1.0	1.0	1.0	1.0	1.0	1.0	1.0	1.0	1.0	1.0	
 2	1.0	1.0	1.0	1.0	1.0	1.0	1.0	1.0	1.0	1.0	1.0	1.0	1.0	1.0	1.0	1.0	
 3	1.0	1.0	1.0	1.0	1.0	1.0	1.0	1.0	1.0	1.0	1.0	1.0	1.0	1.0	1.0	1.0	
 4	1.0	1.0	1.0	1.0	1.0	1.0	1.0	1.0	1.0	1.0	1.0	1.0	1.0	1.0	1.0	1.0	
 5	1.0	1.0	1.0	1.0	1.0	1.0	1.0	1.0	1.0	1.0	1.0	1.0	1.0	1.0	1.0	1.0	
 6	1.0	1.0	1.0	1.0	1.0	1.0	1.0	1.0	1.0	1.0	1.0	1.0	1.0	1.0	1.0	1.0	
 7	1.0	1.0	1.0	1.0	1.0	1.0	1.0	1.0	1.0	1.0	1.0	1.0	1.0	1.0	1.0	1.0	
 8	1.0	1.0	1.0	1.0	1.0	1.0	1.0	1.0	1.0	1.0	1.0	1.0	1.0	1.0	1.0	1.0	
 9	1.0	1.0	1.0	1.0	1.0	1.0	1.0	1.0	1.0	1.0	1.0	1.0	1.0	1.0	1.0	1.0	
 10	1.0	1.0	1.0	1.0	1.0	1.0	1.0	1.0	1.0	1.0	1.0	1.0	1.0	1.0	1.0	1.0	
 11	1.0	1.0	1.0	1.0	1.0	1.0	1.0	1.0	1.0	1.0	1.0	1.0	1.0	1.0	1.0	1.0	
 12	1.0	1.0	1.0	1.0	1.0	1.0	1.0	1.0	1.0	1.0	1.0	1.0	1.0	1.0	1.0	1.0	
 13	1.0	1.0	1.0	1.0	1.0	1.0	1.0	1.0	1.0	1.0	1.0	1.0	1.0	1.0	1.0	1.0	
 14	1.0	1.0	1.0	1.0	1.0	1.0	1.0	1.0	1.0	1.0	1.0	1.0	1.0	1.0	1.0	1.0	
 15	1.0	1.0	1.0	1.0	1.0	1.0	1.0	1.0	1.0	1.0	1.0	1.0	1.0	1.0	1.0	1.0	
 16	1.0	1.0	1.0	1.0	1.0	1.0	1.0	1.0	1.0	1.0	1.0	1.0	1.0	1.0	1.0	1.0	
;

